[VALIDATOR STDOUT]
Type-checking pick-package
...action passes type checking.
Type-checking drop-package
...action passes type checking.
Type-checking move
...action passes type checking.
Checking plan: /home/jfan5/Safety-gen/runs/benchmark/optic/delivery_20260215_225923/delivery/optic_results/delivery_size43_packages1_seed43001.plan
Plan to validate:

Plan size: 160
1:
(move t1 c_19_30 c_19_29)
 
2:
(move t1 c_19_29 c_19_28)
 
3:
(move t1 c_19_28 c_19_27)
 
4:
(move t1 c_19_27 c_19_26)
 
5:
(move t1 c_19_26 c_19_25)
 
6:
(move t1 c_19_25 c_19_24)
 
7:
(move t1 c_19_24 c_19_23)
 
8:
(move t1 c_19_23 c_19_22)
 
9:
(move t1 c_19_22 c_19_21)
 
10:
(move t1 c_19_21 c_19_20)
 
11:
(move t1 c_19_20 c_20_20)
 
12:
(move t1 c_20_20 c_21_20)
 
13:
(move t1 c_21_20 c_22_20)
 
14:
(move t1 c_22_20 c_23_20)
 
15:
(move t1 c_23_20 c_24_20)
 
16:
(move t1 c_24_20 c_25_20)
 
17:
(move t1 c_25_20 c_26_20)
 
18:
(move t1 c_26_20 c_27_20)
 
19:
(move t1 c_27_20 c_28_20)
 
20:
(move t1 c_28_20 c_29_20)
 
21:
(move t1 c_29_20 c_30_20)
 
22:
(move t1 c_30_20 c_31_20)
 
23:
(move t1 c_31_20 c_32_20)
 
24:
(move t1 c_32_20 c_33_20)
 
25:
(move t1 c_33_20 c_34_20)
 
26:
(move t1 c_34_20 c_35_20)
 
27:
(move t1 c_35_20 c_36_20)
 
28:
(pick-package t1 p1 c_36_20)
 
29:
(move t1 c_36_20 c_35_20)
 
30:
(move t1 c_35_20 c_34_20)
 
31:
(move t1 c_34_20 c_33_20)
 
32:
(move t1 c_33_20 c_32_20)
 
33:
(move t1 c_32_20 c_31_20)
 
34:
(move t1 c_31_20 c_30_20)
 
35:
(move t1 c_30_20 c_29_20)
 
36:
(move t1 c_29_20 c_28_20)
 
37:
(move t1 c_28_20 c_27_20)
 
38:
(move t1 c_27_20 c_26_20)
 
39:
(move t1 c_26_20 c_25_20)
 
40:
(move t1 c_25_20 c_24_20)
 
41:
(move t1 c_24_20 c_23_20)
 
42:
(move t1 c_23_20 c_22_20)
 
43:
(move t1 c_22_20 c_21_20)
 
44:
(move t1 c_21_20 c_20_20)
 
45:
(move t1 c_20_20 c_19_20)
 
46:
(move t1 c_19_20 c_18_20)
 
47:
(move t1 c_18_20 c_17_20)
 
48:
(move t1 c_17_20 c_16_20)
 
49:
(move t1 c_16_20 c_15_20)
 
50:
(move t1 c_15_20 c_14_20)
 
51:
(move t1 c_14_20 c_14_19)
 
52:
(move t1 c_14_19 c_14_18)
 
53:
(move t1 c_14_18 c_14_17)
 
54:
(move t1 c_14_17 c_14_16)
 
55:
(move t1 c_14_16 c_14_15)
 
56:
(move t1 c_14_15 c_14_14)
 
57:
(move t1 c_14_14 c_14_13)
 
58:
(move t1 c_14_13 c_14_12)
 
59:
(move t1 c_14_12 c_14_11)
 
60:
(move t1 c_14_11 c_14_10)
 
61:
(move t1 c_14_10 c_14_9)
 
62:
(move t1 c_14_9 c_14_8)
 
63:
(move t1 c_14_8 c_14_7)
 
64:
(drop-package t1 p1 c_14_7)
 
65:
(move t1 c_14_7 c_14_8)
 
66:
(move t1 c_14_8 c_14_9)
 
67:
(move t1 c_14_9 c_14_10)
 
68:
(move t1 c_14_10 c_14_11)
 
69:
(move t1 c_14_11 c_14_12)
 
70:
(move t1 c_14_12 c_14_13)
 
71:
(move t1 c_14_13 c_14_14)
 
72:
(move t1 c_14_14 c_14_15)
 
73:
(move t1 c_14_15 c_14_16)
 
74:
(move t1 c_14_16 c_14_17)
 
75:
(pick-package t1 p2 c_14_17)
 
76:
(move t1 c_14_17 c_14_16)
 
77:
(move t1 c_14_16 c_14_15)
 
78:
(move t1 c_14_15 c_14_14)
 
79:
(move t1 c_14_14 c_14_13)
 
80:
(move t1 c_14_13 c_14_12)
 
81:
(move t1 c_14_12 c_14_11)
 
82:
(move t1 c_14_11 c_14_10)
 
83:
(move t1 c_14_10 c_14_9)
 
84:
(move t1 c_14_9 c_14_8)
 
85:
(move t1 c_14_8 c_14_7)
 
86:
(drop-package t1 p2 c_14_7)
 
87:
(move t1 c_14_7 c_14_8)
 
88:
(move t1 c_14_8 c_14_9)
 
89:
(move t1 c_14_9 c_14_10)
 
90:
(move t1 c_14_10 c_14_11)
 
91:
(move t1 c_14_11 c_14_12)
 
92:
(move t1 c_14_12 c_14_13)
 
93:
(move t1 c_14_13 c_14_14)
 
94:
(move t1 c_14_14 c_14_15)
 
95:
(move t1 c_14_15 c_14_16)
 
96:
(move t1 c_14_16 c_14_17)
 
97:
(move t1 c_14_17 c_14_18)
 
98:
(move t1 c_14_18 c_14_19)
 
99:
(move t1 c_14_19 c_14_20)
 
100:
(move t1 c_14_20 c_14_21)
 
101:
(move t1 c_14_21 c_14_22)
 
102:
(move t1 c_14_22 c_14_23)
 
103:
(move t1 c_14_23 c_14_24)
 
104:
(move t1 c_14_24 c_14_25)
 
105:
(move t1 c_14_25 c_14_26)
 
106:
(move t1 c_14_26 c_14_27)
 
107:
(move t1 c_14_27 c_14_28)
 
108:
(move t1 c_14_28 c_14_29)
 
109:
(move t1 c_14_29 c_14_30)
 
110:
(move t1 c_14_30 c_14_31)
 
111:
(move t1 c_14_31 c_14_32)
 
112:
(move t1 c_14_32 c_14_33)
 
113:
(move t1 c_14_33 c_14_34)
 
114:
(move t1 c_14_34 c_14_35)
 
115:
(move t1 c_14_35 c_14_36)
 
116:
(move t1 c_14_36 c_14_37)
 
117:
(move t1 c_14_37 c_14_38)
 
118:
(move t1 c_14_38 c_14_39)
 
119:
(move t1 c_14_39 c_14_40)
 
120:
(move t1 c_14_40 c_14_41)
 
121:
(move t1 c_14_41 c_15_41)
 
122:
(move t1 c_15_41 c_16_41)
 
123:
(pick-package t1 p3 c_16_41)
 
124:
(move t1 c_16_41 c_15_41)
 
125:
(move t1 c_15_41 c_14_41)
 
126:
(move t1 c_14_41 c_14_40)
 
127:
(move t1 c_14_40 c_14_39)
 
128:
(move t1 c_14_39 c_14_38)
 
129:
(move t1 c_14_38 c_14_37)
 
130:
(move t1 c_14_37 c_14_36)
 
131:
(move t1 c_14_36 c_14_35)
 
132:
(move t1 c_14_35 c_14_34)
 
133:
(move t1 c_14_34 c_14_33)
 
134:
(move t1 c_14_33 c_14_32)
 
135:
(move t1 c_14_32 c_14_31)
 
136:
(move t1 c_14_31 c_14_30)
 
137:
(move t1 c_14_30 c_14_29)
 
138:
(move t1 c_14_29 c_14_28)
 
139:
(move t1 c_14_28 c_14_27)
 
140:
(move t1 c_14_27 c_14_26)
 
141:
(move t1 c_14_26 c_14_25)
 
142:
(move t1 c_14_25 c_14_24)
 
143:
(move t1 c_14_24 c_14_23)
 
144:
(move t1 c_14_23 c_14_22)
 
145:
(move t1 c_14_22 c_14_21)
 
146:
(move t1 c_14_21 c_14_20)
 
147:
(move t1 c_14_20 c_14_19)
 
148:
(move t1 c_14_19 c_14_18)
 
149:
(move t1 c_14_18 c_14_17)
 
150:
(move t1 c_14_17 c_14_16)
 
151:
(move t1 c_14_16 c_14_15)
 
152:
(move t1 c_14_15 c_14_14)
 
153:
(move t1 c_14_14 c_14_13)
 
154:
(move t1 c_14_13 c_14_12)
 
155:
(move t1 c_14_12 c_14_11)
 
156:
(move t1 c_14_11 c_14_10)
 
157:
(move t1 c_14_10 c_14_9)
 
158:
(move t1 c_14_9 c_14_8)
 
159:
(move t1 c_14_8 c_14_7)
 
160:
(drop-package t1 p3 c_14_7)
 

Plan Validation details
-----------------------

Checking next happening (time 1)
Deleting (at t1 c_19_30)
Adding (at t1 c_19_29)

Checking next happening (time 2)
Deleting (at t1 c_19_29)
Adding (at t1 c_19_28)

Checking next happening (time 3)
Deleting (at t1 c_19_28)
Adding (at t1 c_19_27)

Checking next happening (time 4)
Deleting (at t1 c_19_27)
Adding (at t1 c_19_26)

Checking next happening (time 5)
Deleting (at t1 c_19_26)
Adding (at t1 c_19_25)

Checking next happening (time 6)
Deleting (at t1 c_19_25)
Adding (at t1 c_19_24)

Checking next happening (time 7)
Deleting (at t1 c_19_24)
Adding (at t1 c_19_23)

Checking next happening (time 8)
Deleting (at t1 c_19_23)
Adding (at t1 c_19_22)

Checking next happening (time 9)
Deleting (at t1 c_19_22)
Adding (at t1 c_19_21)

Checking next happening (time 10)
Deleting (at t1 c_19_21)
Adding (at t1 c_19_20)

Checking next happening (time 11)
Deleting (at t1 c_19_20)
Adding (at t1 c_20_20)

Checking next happening (time 12)
Deleting (at t1 c_20_20)
Adding (at t1 c_21_20)

Checking next happening (time 13)
Deleting (at t1 c_21_20)
Adding (at t1 c_22_20)

Checking next happening (time 14)
Deleting (at t1 c_22_20)
Adding (at t1 c_23_20)

Checking next happening (time 15)
Deleting (at t1 c_23_20)
Adding (at t1 c_24_20)

Checking next happening (time 16)
Deleting (at t1 c_24_20)
Adding (at t1 c_25_20)

Checking next happening (time 17)
Deleting (at t1 c_25_20)
Adding (at t1 c_26_20)

Checking next happening (time 18)
Deleting (at t1 c_26_20)
Adding (at t1 c_27_20)

Checking next happening (time 19)
Deleting (at t1 c_27_20)
Adding (at t1 c_28_20)

Checking next happening (time 20)
Deleting (at t1 c_28_20)
Adding (at t1 c_29_20)

Checking next happening (time 21)
Deleting (at t1 c_29_20)
Adding (at t1 c_30_20)

Checking next happening (time 22)
Deleting (at t1 c_30_20)
Adding (at t1 c_31_20)

Checking next happening (time 23)
Deleting (at t1 c_31_20)
Adding (at t1 c_32_20)

Checking next happening (time 24)
Deleting (at t1 c_32_20)
Adding (at t1 c_33_20)

Checking next happening (time 25)
Deleting (at t1 c_33_20)
Adding (at t1 c_34_20)

Checking next happening (time 26)
Deleting (at t1 c_34_20)
Adding (at t1 c_35_20)

Checking next happening (time 27)
Deleting (at t1 c_35_20)
Adding (at t1 c_36_20)

Checking next happening (time 28)
Deleting (at p1 c_36_20)
Deleting (empty t1)
Adding (carrying t1 p1)

Checking next happening (time 29)
Deleting (at t1 c_36_20)
Adding (at t1 c_35_20)

Checking next happening (time 30)
Deleting (at t1 c_35_20)
Adding (at t1 c_34_20)

Checking next happening (time 31)
Deleting (at t1 c_34_20)
Adding (at t1 c_33_20)

Checking next happening (time 32)
Deleting (at t1 c_33_20)
Adding (at t1 c_32_20)

Checking next happening (time 33)
Deleting (at t1 c_32_20)
Adding (at t1 c_31_20)

Checking next happening (time 34)
Deleting (at t1 c_31_20)
Adding (at t1 c_30_20)

Checking next happening (time 35)
Deleting (at t1 c_30_20)
Adding (at t1 c_29_20)

Checking next happening (time 36)
Deleting (at t1 c_29_20)
Adding (at t1 c_28_20)

Checking next happening (time 37)
Deleting (at t1 c_28_20)
Adding (at t1 c_27_20)

Checking next happening (time 38)
Deleting (at t1 c_27_20)
Adding (at t1 c_26_20)

Checking next happening (time 39)
Deleting (at t1 c_26_20)
Adding (at t1 c_25_20)

Checking next happening (time 40)
Deleting (at t1 c_25_20)
Adding (at t1 c_24_20)

Checking next happening (time 41)
Deleting (at t1 c_24_20)
Adding (at t1 c_23_20)

Checking next happening (time 42)
Deleting (at t1 c_23_20)
Adding (at t1 c_22_20)

Checking next happening (time 43)
Deleting (at t1 c_22_20)
Adding (at t1 c_21_20)

Checking next happening (time 44)
Deleting (at t1 c_21_20)
Adding (at t1 c_20_20)

Checking next happening (time 45)
Deleting (at t1 c_20_20)
Adding (at t1 c_19_20)

Checking next happening (time 46)
Deleting (at t1 c_19_20)
Adding (at t1 c_18_20)

Checking next happening (time 47)
Deleting (at t1 c_18_20)
Adding (at t1 c_17_20)

Checking next happening (time 48)
Deleting (at t1 c_17_20)
Adding (at t1 c_16_20)

Checking next happening (time 49)
Deleting (at t1 c_16_20)
Adding (at t1 c_15_20)

Checking next happening (time 50)
Deleting (at t1 c_15_20)
Adding (at t1 c_14_20)

Checking next happening (time 51)
Deleting (at t1 c_14_20)
Adding (at t1 c_14_19)

Checking next happening (time 52)
Deleting (at t1 c_14_19)
Adding (at t1 c_14_18)

Checking next happening (time 53)
Deleting (at t1 c_14_18)
Adding (at t1 c_14_17)

Checking next happening (time 54)
Deleting (at t1 c_14_17)
Adding (at t1 c_14_16)

Checking next happening (time 55)
Deleting (at t1 c_14_16)
Adding (at t1 c_14_15)

Checking next happening (time 56)
Deleting (at t1 c_14_15)
Adding (at t1 c_14_14)

Checking next happening (time 57)
Deleting (at t1 c_14_14)
Adding (at t1 c_14_13)

Checking next happening (time 58)
Deleting (at t1 c_14_13)
Adding (at t1 c_14_12)

Checking next happening (time 59)
Deleting (at t1 c_14_12)
Adding (at t1 c_14_11)

Checking next happening (time 60)
Deleting (at t1 c_14_11)
Adding (at t1 c_14_10)

Checking next happening (time 61)
Deleting (at t1 c_14_10)
Adding (at t1 c_14_9)

Checking next happening (time 62)
Deleting (at t1 c_14_9)
Adding (at t1 c_14_8)

Checking next happening (time 63)
Deleting (at t1 c_14_8)
Adding (at t1 c_14_7)

Checking next happening (time 64)
Deleting (carrying t1 p1)
Adding (empty t1)
Adding (at p1 c_14_7)

Checking next happening (time 65)
Deleting (at t1 c_14_7)
Adding (at t1 c_14_8)

Checking next happening (time 66)
Deleting (at t1 c_14_8)
Adding (at t1 c_14_9)

Checking next happening (time 67)
Deleting (at t1 c_14_9)
Adding (at t1 c_14_10)

Checking next happening (time 68)
Deleting (at t1 c_14_10)
Adding (at t1 c_14_11)

Checking next happening (time 69)
Deleting (at t1 c_14_11)
Adding (at t1 c_14_12)

Checking next happening (time 70)
Deleting (at t1 c_14_12)
Adding (at t1 c_14_13)

Checking next happening (time 71)
Deleting (at t1 c_14_13)
Adding (at t1 c_14_14)

Checking next happening (time 72)
Deleting (at t1 c_14_14)
Adding (at t1 c_14_15)

Checking next happening (time 73)
Deleting (at t1 c_14_15)
Adding (at t1 c_14_16)

Checking next happening (time 74)
Deleting (at t1 c_14_16)
Adding (at t1 c_14_17)

Checking next happening (time 75)
Deleting (at p2 c_14_17)
Deleting (empty t1)
Adding (carrying t1 p2)

Checking next happening (time 76)
Deleting (at t1 c_14_17)
Adding (at t1 c_14_16)

Checking next happening (time 77)
Deleting (at t1 c_14_16)
Adding (at t1 c_14_15)

Checking next happening (time 78)
Deleting (at t1 c_14_15)
Adding (at t1 c_14_14)

Checking next happening (time 79)
Deleting (at t1 c_14_14)
Adding (at t1 c_14_13)

Checking next happening (time 80)
Deleting (at t1 c_14_13)
Adding (at t1 c_14_12)

Checking next happening (time 81)
Deleting (at t1 c_14_12)
Adding (at t1 c_14_11)

Checking next happening (time 82)
Deleting (at t1 c_14_11)
Adding (at t1 c_14_10)

Checking next happening (time 83)
Deleting (at t1 c_14_10)
Adding (at t1 c_14_9)

Checking next happening (time 84)
Deleting (at t1 c_14_9)
Adding (at t1 c_14_8)

Checking next happening (time 85)
Deleting (at t1 c_14_8)
Adding (at t1 c_14_7)

Checking next happening (time 86)
Deleting (carrying t1 p2)
Adding (empty t1)
Adding (at p2 c_14_7)

Checking next happening (time 87)
Deleting (at t1 c_14_7)
Adding (at t1 c_14_8)

Checking next happening (time 88)
Deleting (at t1 c_14_8)
Adding (at t1 c_14_9)

Checking next happening (time 89)
Deleting (at t1 c_14_9)
Adding (at t1 c_14_10)

Checking next happening (time 90)
Deleting (at t1 c_14_10)
Adding (at t1 c_14_11)

Checking next happening (time 91)
Deleting (at t1 c_14_11)
Adding (at t1 c_14_12)

Checking next happening (time 92)
Deleting (at t1 c_14_12)
Adding (at t1 c_14_13)

Checking next happening (time 93)
Deleting (at t1 c_14_13)
Adding (at t1 c_14_14)

Checking next happening (time 94)
Deleting (at t1 c_14_14)
Adding (at t1 c_14_15)

Checking next happening (time 95)
Deleting (at t1 c_14_15)
Adding (at t1 c_14_16)

Checking next happening (time 96)
Deleting (at t1 c_14_16)
Adding (at t1 c_14_17)

Checking next happening (time 97)
Deleting (at t1 c_14_17)
Adding (at t1 c_14_18)

Checking next happening (time 98)
Deleting (at t1 c_14_18)
Adding (at t1 c_14_19)

Checking next happening (time 99)
Deleting (at t1 c_14_19)
Adding (at t1 c_14_20)

Checking next happening (time 100)
Deleting (at t1 c_14_20)
Adding (at t1 c_14_21)

Checking next happening (time 101)
Deleting (at t1 c_14_21)
Adding (at t1 c_14_22)

Checking next happening (time 102)
Deleting (at t1 c_14_22)
Adding (at t1 c_14_23)

Checking next happening (time 103)
Deleting (at t1 c_14_23)
Adding (at t1 c_14_24)

Checking next happening (time 104)
Deleting (at t1 c_14_24)
Adding (at t1 c_14_25)

Checking next happening (time 105)
Deleting (at t1 c_14_25)
Adding (at t1 c_14_26)

Checking next happening (time 106)
Deleting (at t1 c_14_26)
Adding (at t1 c_14_27)

Checking next happening (time 107)
Deleting (at t1 c_14_27)
Adding (at t1 c_14_28)

Checking next happening (time 108)
Deleting (at t1 c_14_28)
Adding (at t1 c_14_29)

Checking next happening (time 109)
Deleting (at t1 c_14_29)
Adding (at t1 c_14_30)

Checking next happening (time 110)
Deleting (at t1 c_14_30)
Adding (at t1 c_14_31)

Checking next happening (time 111)
Deleting (at t1 c_14_31)
Adding (at t1 c_14_32)

Checking next happening (time 112)
Deleting (at t1 c_14_32)
Adding (at t1 c_14_33)

Checking next happening (time 113)
Deleting (at t1 c_14_33)
Adding (at t1 c_14_34)

Checking next happening (time 114)
Deleting (at t1 c_14_34)
Adding (at t1 c_14_35)

Checking next happening (time 115)
Deleting (at t1 c_14_35)
Adding (at t1 c_14_36)

Checking next happening (time 116)
Deleting (at t1 c_14_36)
Adding (at t1 c_14_37)

Checking next happening (time 117)
Deleting (at t1 c_14_37)
Adding (at t1 c_14_38)

Checking next happening (time 118)
Deleting (at t1 c_14_38)
Adding (at t1 c_14_39)

Checking next happening (time 119)
Deleting (at t1 c_14_39)
Adding (at t1 c_14_40)

Checking next happening (time 120)
Deleting (at t1 c_14_40)
Adding (at t1 c_14_41)

Checking next happening (time 121)
Deleting (at t1 c_14_41)
Adding (at t1 c_15_41)

Checking next happening (time 122)
Deleting (at t1 c_15_41)
Adding (at t1 c_16_41)

Checking next happening (time 123)
Deleting (at p3 c_16_41)
Deleting (empty t1)
Adding (carrying t1 p3)

Checking next happening (time 124)
Deleting (at t1 c_16_41)
Adding (at t1 c_15_41)

Checking next happening (time 125)
Deleting (at t1 c_15_41)
Adding (at t1 c_14_41)

Checking next happening (time 126)
Deleting (at t1 c_14_41)
Adding (at t1 c_14_40)

Checking next happening (time 127)
Deleting (at t1 c_14_40)
Adding (at t1 c_14_39)

Checking next happening (time 128)
Deleting (at t1 c_14_39)
Adding (at t1 c_14_38)

Checking next happening (time 129)
Deleting (at t1 c_14_38)
Adding (at t1 c_14_37)

Checking next happening (time 130)
Deleting (at t1 c_14_37)
Adding (at t1 c_14_36)

Checking next happening (time 131)
Deleting (at t1 c_14_36)
Adding (at t1 c_14_35)

Checking next happening (time 132)
Deleting (at t1 c_14_35)
Adding (at t1 c_14_34)

Checking next happening (time 133)
Deleting (at t1 c_14_34)
Adding (at t1 c_14_33)

Checking next happening (time 134)
Deleting (at t1 c_14_33)
Adding (at t1 c_14_32)

Checking next happening (time 135)
Deleting (at t1 c_14_32)
Adding (at t1 c_14_31)

Checking next happening (time 136)
Deleting (at t1 c_14_31)
Adding (at t1 c_14_30)

Checking next happening (time 137)
Deleting (at t1 c_14_30)
Adding (at t1 c_14_29)

Checking next happening (time 138)
Deleting (at t1 c_14_29)
Adding (at t1 c_14_28)

Checking next happening (time 139)
Deleting (at t1 c_14_28)
Adding (at t1 c_14_27)

Checking next happening (time 140)
Deleting (at t1 c_14_27)
Adding (at t1 c_14_26)

Checking next happening (time 141)
Deleting (at t1 c_14_26)
Adding (at t1 c_14_25)

Checking next happening (time 142)
Deleting (at t1 c_14_25)
Adding (at t1 c_14_24)

Checking next happening (time 143)
Deleting (at t1 c_14_24)
Adding (at t1 c_14_23)

Checking next happening (time 144)
Deleting (at t1 c_14_23)
Adding (at t1 c_14_22)

Checking next happening (time 145)
Deleting (at t1 c_14_22)
Adding (at t1 c_14_21)

Checking next happening (time 146)
Deleting (at t1 c_14_21)
Adding (at t1 c_14_20)

Checking next happening (time 147)
Deleting (at t1 c_14_20)
Adding (at t1 c_14_19)

Checking next happening (time 148)
Deleting (at t1 c_14_19)
Adding (at t1 c_14_18)

Checking next happening (time 149)
Deleting (at t1 c_14_18)
Adding (at t1 c_14_17)

Checking next happening (time 150)
Deleting (at t1 c_14_17)
Adding (at t1 c_14_16)

Checking next happening (time 151)
Deleting (at t1 c_14_16)
Adding (at t1 c_14_15)

Checking next happening (time 152)
Deleting (at t1 c_14_15)
Adding (at t1 c_14_14)

Checking next happening (time 153)
Deleting (at t1 c_14_14)
Adding (at t1 c_14_13)

Checking next happening (time 154)
Deleting (at t1 c_14_13)
Adding (at t1 c_14_12)

Checking next happening (time 155)
Deleting (at t1 c_14_12)
Adding (at t1 c_14_11)

Checking next happening (time 156)
Deleting (at t1 c_14_11)
Adding (at t1 c_14_10)

Checking next happening (time 157)
Deleting (at t1 c_14_10)
Adding (at t1 c_14_9)

Checking next happening (time 158)
Deleting (at t1 c_14_9)
Adding (at t1 c_14_8)

Checking next happening (time 159)
Deleting (at t1 c_14_8)
Adding (at t1 c_14_7)

Checking next happening (time 160)
Deleting (carrying t1 p3)
Adding (empty t1)
Adding (at p3 c_14_7)
Plan executed successfully - checking goal
Plan valid
Final value: 160 

Successful plans:
Value: 160
 /home/jfan5/Safety-gen/runs/benchmark/optic/delivery_20260215_225923/delivery/optic_results/delivery_size43_packages1_seed43001.plan 160
